1111100 AB
355 391 413 435 457 480 503 526 549 578 617 656 678 700 722 744 766 788 832 876 923 970 994 1018 1042 1066 1089 1112 1135 1157 1185 1224 1263 1301 1340 1378 1417 15
1111100 BA
335 371 389 407 432 455 477 500 523 546 568 597 636 675 697 719 741 763 785 807 851 895 943 990 1014 1038 1062 1086 1109 1132 1154 1176 1204 1243 1279 1317 1356 1394 1433 31
0000011 AB
355 391 427 470 491 513 534 556 577 620 663 706 749 770 792 813 835 856 878 899 921 964 1007 1028 1050 1071 1093 1114 1136 1157 1179 1200 1221 1255 1289 1322 1356 1389 1423 16
0000011 BA
335 371 407 446 467 489 510 532 553 575 596 639 682 725 768 789 811 832 854 875 897 918 940 983 1026 1047 1069 1090 1112 1133 1155 1176 1198 1219 1240 1272 1305 1338 1372 1405 1439 32
